0111111100000000
0111111110000000
0111111111100000
0111111111110000
0100001111110000
0000000011110000
0000000011111000
0000000011111000
0000000011111000
0000000011111000
0000000011111000
0000000011111000
0111111111111110
0111111111111110
0111111111111110
0000000000000000
